p cnf 332 109
r 0.88 276 275 289 287 285 292 291 0
e 279 281 299 298 301 300 304 303 302 0
r 0.457 277 283 294 293 297 296 295 306 305 0
e 307 308 309 310 311 312 313 314 315 316 317 318 319 320 321 322 323 324 325 326 327 328 329 330 331 332 0
331 332 0
-332 -330 -328 -306 -287 -285 0
-332 -330 -328 -306 -305 -287 0
-332 -330 -328 -306 -305 -285 0
285 287 306 -332 -330 -328 -326 0
287 305 306 -332 -330 -328 -326 0
285 305 306 -332 -330 -328 -326 0
305 306 -332 -330 -328 -326 0
287 306 -332 -330 -328 -325 0
285 306 -332 -330 -328 -325 0
306 325 326 -332 -330 -328 0
285 287 289 305 -332 -330 -327 0
285 287 -332 -330 -327 -305 -289 0
285 305 -332 -330 -327 -289 -287 0
285 289 -332 -330 -327 -305 -287 0
287 305 -332 -330 -327 -289 -285 0
287 289 -332 -330 -327 -305 -285 0
289 305 -332 -330 -327 -287 -285 0
-332 -330 -327 -305 -289 -287 -285 0
327 328 -332 -330 0
291 292 305 306 -332 -329 0
291 305 -332 -329 -306 -292 0
292 306 -332 -329 -305 -291 0
-332 -329 -306 -305 -292 -291 0
329 330 -332 0
291 -331 -300 0
300 -331 -291 0
292 -331 -301 0
301 -331 -292 0
285 287 -331 -302 0
-331 -302 -287 -285 0
285 302 -331 -287 0
287 302 -331 -285 0
300 302 -331 -289 0
-331 -302 -300 -289 0
289 302 -331 -300 0
289 300 -331 -302 0
285 -331 -303 0
287 -331 -303 0
303 -331 -287 -285 0
302 -331 -304 0
300 -331 -304 0
304 -331 -302 -300 0
303 304 -331 -301 0
301 -331 -303 0
301 -331 -304 0
323 324 0
291 -324 -298 0
298 -324 -291 0
292 -324 -299 0
299 -324 -292 0
289 -324 -298 -287 -285 0
298 -324 -289 -287 -285 0
287 -324 -298 -289 -285 0
287 289 298 -324 -285 0
285 -324 -298 -289 -287 0
285 289 298 -324 -287 0
285 287 289 -324 -298 0
285 287 298 -324 -289 0
285 287 -324 -322 -299 0
287 298 -324 -322 -299 0
285 298 -324 -322 -299 0
298 -324 -322 -299 0
287 -324 -321 -299 0
285 -324 -321 -299 0
321 322 -324 -299 0
299 -324 -287 -285 0
299 -324 -298 -287 0
299 -324 -298 -285 0
275 -308 -279 0
279 -308 -275 0
276 -308 -279 0
279 -308 -276 0
275 276 277 -307 0
-307 -277 -276 -275 0
307 308 0
281 -309 -276 0
276 -309 -281 0
281 -309 -275 0
275 -309 -281 0
275 276 283 -310 0
-310 -283 -276 -275 0
309 310 0
319 320 -323 0
-323 -319 -294 -293 -292 -291 0
292 294 -323 -319 -293 -291 0
291 293 -323 -319 -294 -292 0
291 292 293 294 -323 -319 0
317 318 -323 -320 0
-323 -320 -318 -296 -294 0
-323 -320 -318 -297 -294 0
294 296 297 -323 -320 -318 0
315 316 -323 -320 -317 0
-323 -320 -317 -316 -297 -295 -293 0
295 297 -323 -320 -317 -316 0
293 297 -323 -320 -317 -316 0
313 314 -323 -320 -317 -315 0
-323 -320 -317 -315 -314 -296 -287 -285 0
285 296 -323 -320 -317 -315 -314 0
287 296 -323 -320 -317 -315 -314 0
311 312 -323 -320 -317 -315 -313 0
285 -323 -320 -317 -315 -313 -311 -295 -287 0
287 -323 -320 -317 -315 -313 -311 -295 -285 0
285 287 295 -323 -320 -317 -315 -313 -311 0
295 -323 -320 -317 -315 -313 -311 -287 -285 0
289 -323 -320 -317 -315 -313 -312 -295 -293 0
289 293 295 -323 -320 -317 -315 -313 -312 0
293 -323 -320 -317 -315 -313 -312 -295 -289 0
295 -323 -320 -317 -315 -313 -312 -293 -289 0
